certificates/rado_a5_c244_N48.cnf
c Rad2 upper bound instance: x1 + 5*x2 - x3 = 244, interval [1,48]
p cnf 48 432
1 5 48 0
-1 -5 -48 0
2 6 48 0
-2 -6 -48 0
3 7 48 0
-3 -7 -48 0
4 8 48 0
-4 -8 -48 0
5 9 48 0
-5 -9 -48 0
1 10 47 0
-1 -10 -47 0
6 10 48 0
-6 -10 -48 0
2 11 47 0
-2 -11 -47 0
7 11 48 0
-7 -11 -48 0
3 12 47 0
-3 -12 -47 0
8 12 48 0
-8 -12 -48 0
4 13 47 0
-4 -13 -47 0
9 13 48 0
-9 -13 -48 0
5 14 47 0
-5 -14 -47 0
10 14 48 0
-10 -14 -48 0
1 15 46 0
-1 -15 -46 0
6 15 47 0
-6 -15 -47 0
11 15 48 0
-11 -15 -48 0
2 16 46 0
-2 -16 -46 0
7 16 47 0
-7 -16 -47 0
12 16 48 0
-12 -16 -48 0
3 17 46 0
-3 -17 -46 0
8 17 47 0
-8 -17 -47 0
13 17 48 0
-13 -17 -48 0
4 18 46 0
-4 -18 -46 0
9 18 47 0
-9 -18 -47 0
14 18 48 0
-14 -18 -48 0
5 19 46 0
-5 -19 -46 0
10 19 47 0
-10 -19 -47 0
15 19 48 0
-15 -19 -48 0
1 20 45 0
-1 -20 -45 0
6 20 46 0
-6 -20 -46 0
11 20 47 0
-11 -20 -47 0
16 20 48 0
-16 -20 -48 0
2 21 45 0
-2 -21 -45 0
7 21 46 0
-7 -21 -46 0
12 21 47 0
-12 -21 -47 0
17 21 48 0
-17 -21 -48 0
3 22 45 0
-3 -22 -45 0
8 22 46 0
-8 -22 -46 0
13 22 47 0
-13 -22 -47 0
18 22 48 0
-18 -22 -48 0
4 23 45 0
-4 -23 -45 0
9 23 46 0
-9 -23 -46 0
14 23 47 0
-14 -23 -47 0
19 23 48 0
-19 -23 -48 0
5 24 45 0
-5 -24 -45 0
10 24 46 0
-10 -24 -46 0
15 24 47 0
-15 -24 -47 0
20 24 48 0
-20 -24 -48 0
1 25 44 0
-1 -25 -44 0
6 25 45 0
-6 -25 -45 0
11 25 46 0
-11 -25 -46 0
16 25 47 0
-16 -25 -47 0
21 25 48 0
-21 -25 -48 0
2 26 44 0
-2 -26 -44 0
7 26 45 0
-7 -26 -45 0
12 26 46 0
-12 -26 -46 0
17 26 47 0
-17 -26 -47 0
22 26 48 0
-22 -26 -48 0
3 27 44 0
-3 -27 -44 0
8 27 45 0
-8 -27 -45 0
13 27 46 0
-13 -27 -46 0
18 27 47 0
-18 -27 -47 0
23 27 48 0
-23 -27 -48 0
4 28 44 0
-4 -28 -44 0
9 28 45 0
-9 -28 -45 0
14 28 46 0
-14 -28 -46 0
19 28 47 0
-19 -28 -47 0
24 28 48 0
-24 -28 -48 0
5 29 44 0
-5 -29 -44 0
10 29 45 0
-10 -29 -45 0
15 29 46 0
-15 -29 -46 0
20 29 47 0
-20 -29 -47 0
25 29 48 0
-25 -29 -48 0
1 30 43 0
-1 -30 -43 0
6 30 44 0
-6 -30 -44 0
11 30 45 0
-11 -30 -45 0
16 30 46 0
-16 -30 -46 0
21 30 47 0
-21 -30 -47 0
26 30 48 0
-26 -30 -48 0
2 31 43 0
-2 -31 -43 0
7 31 44 0
-7 -31 -44 0
12 31 45 0
-12 -31 -45 0
17 31 46 0
-17 -31 -46 0
22 31 47 0
-22 -31 -47 0
27 31 48 0
-27 -31 -48 0
3 32 43 0
-3 -32 -43 0
8 32 44 0
-8 -32 -44 0
13 32 45 0
-13 -32 -45 0
18 32 46 0
-18 -32 -46 0
23 32 47 0
-23 -32 -47 0
28 32 48 0
-28 -32 -48 0
4 33 43 0
-4 -33 -43 0
9 33 44 0
-9 -33 -44 0
14 33 45 0
-14 -33 -45 0
19 33 46 0
-19 -33 -46 0
24 33 47 0
-24 -33 -47 0
29 33 48 0
-29 -33 -48 0
5 34 43 0
-5 -34 -43 0
10 34 44 0
-10 -34 -44 0
15 34 45 0
-15 -34 -45 0
20 34 46 0
-20 -34 -46 0
25 34 47 0
-25 -34 -47 0
30 34 48 0
-30 -34 -48 0
1 35 42 0
-1 -35 -42 0
6 35 43 0
-6 -35 -43 0
11 35 44 0
-11 -35 -44 0
16 35 45 0
-16 -35 -45 0
21 35 46 0
-21 -35 -46 0
26 35 47 0
-26 -35 -47 0
31 35 48 0
-31 -35 -48 0
2 36 42 0
-2 -36 -42 0
7 36 43 0
-7 -36 -43 0
12 36 44 0
-12 -36 -44 0
17 36 45 0
-17 -36 -45 0
22 36 46 0
-22 -36 -46 0
27 36 47 0
-27 -36 -47 0
32 36 48 0
-32 -36 -48 0
3 37 42 0
-3 -37 -42 0
8 37 43 0
-8 -37 -43 0
13 37 44 0
-13 -37 -44 0
18 37 45 0
-18 -37 -45 0
23 37 46 0
-23 -37 -46 0
28 37 47 0
-28 -37 -47 0
33 37 48 0
-33 -37 -48 0
4 38 42 0
-4 -38 -42 0
9 38 43 0
-9 -38 -43 0
14 38 44 0
-14 -38 -44 0
19 38 45 0
-19 -38 -45 0
24 38 46 0
-24 -38 -46 0
29 38 47 0
-29 -38 -47 0
34 38 48 0
-34 -38 -48 0
5 39 42 0
-5 -39 -42 0
10 39 43 0
-10 -39 -43 0
15 39 44 0
-15 -39 -44 0
20 39 45 0
-20 -39 -45 0
25 39 46 0
-25 -39 -46 0
30 39 47 0
-30 -39 -47 0
35 39 48 0
-35 -39 -48 0
1 40 41 0
-1 -40 -41 0
6 40 42 0
-6 -40 -42 0
11 40 43 0
-11 -40 -43 0
16 40 44 0
-16 -40 -44 0
21 40 45 0
-21 -40 -45 0
26 40 46 0
-26 -40 -46 0
31 40 47 0
-31 -40 -47 0
36 40 48 0
-36 -40 -48 0
2 41 0
-2 -41 0
7 41 42 0
-7 -41 -42 0
12 41 43 0
-12 -41 -43 0
17 41 44 0
-17 -41 -44 0
22 41 45 0
-22 -41 -45 0
27 41 46 0
-27 -41 -46 0
32 41 47 0
-32 -41 -47 0
37 41 48 0
-37 -41 -48 0
3 41 42 0
-3 -41 -42 0
8 42 0
-8 -42 0
13 42 43 0
-13 -42 -43 0
18 42 44 0
-18 -42 -44 0
23 42 45 0
-23 -42 -45 0
28 42 46 0
-28 -42 -46 0
33 42 47 0
-33 -42 -47 0
38 42 48 0
-38 -42 -48 0
4 41 43 0
-4 -41 -43 0
9 42 43 0
-9 -42 -43 0
14 43 0
-14 -43 0
19 43 44 0
-19 -43 -44 0
24 43 45 0
-24 -43 -45 0
29 43 46 0
-29 -43 -46 0
34 43 47 0
-34 -43 -47 0
39 43 48 0
-39 -43 -48 0
5 41 44 0
-5 -41 -44 0
10 42 44 0
-10 -42 -44 0
15 43 44 0
-15 -43 -44 0
20 44 0
-20 -44 0
25 44 45 0
-25 -44 -45 0
30 44 46 0
-30 -44 -46 0
35 44 47 0
-35 -44 -47 0
40 44 48 0
-40 -44 -48 0
1 40 45 0
-1 -40 -45 0
6 41 45 0
-6 -41 -45 0
11 42 45 0
-11 -42 -45 0
16 43 45 0
-16 -43 -45 0
21 44 45 0
-21 -44 -45 0
26 45 0
-26 -45 0
31 45 46 0
-31 -45 -46 0
36 45 47 0
-36 -45 -47 0
41 45 48 0
-41 -45 -48 0
2 40 46 0
-2 -40 -46 0
7 41 46 0
-7 -41 -46 0
12 42 46 0
-12 -42 -46 0
17 43 46 0
-17 -43 -46 0
22 44 46 0
-22 -44 -46 0
27 45 46 0
-27 -45 -46 0
32 46 0
-32 -46 0
37 46 47 0
-37 -46 -47 0
42 46 48 0
-42 -46 -48 0
3 40 47 0
-3 -40 -47 0
8 41 47 0
-8 -41 -47 0
13 42 47 0
-13 -42 -47 0
18 43 47 0
-18 -43 -47 0
23 44 47 0
-23 -44 -47 0
28 45 47 0
-28 -45 -47 0
33 46 47 0
-33 -46 -47 0
38 47 0
-38 -47 0
43 47 48 0
-43 -47 -48 0
4 40 48 0
-4 -40 -48 0
9 41 48 0
-9 -41 -48 0
14 42 48 0
-14 -42 -48 0
19 43 48 0
-19 -43 -48 0
24 44 48 0
-24 -44 -48 0
29 45 48 0
-29 -45 -48 0
34 46 48 0
-34 -46 -48 0
39 47 48 0
-39 -47 -48 0
44 48 0
-44 -48 0
