certificates/rado_a5_c244_N48.drat
-48 0
44 0
-20 0
16 0
24 0
-40 0
36 0
4 0
-12 0
-28 0
8 0
32 0
0
